p cnf 64 254
c 16 16 16 16 15 16 16 16 16 16 16 15 16 16 16 16 

-1 -2 0
-3 -4 -1 0
3 4 -1 0
-3 4 1 0
3 -4 1 0
-3 -5 -6 0
3 5 -6 0
-3 5 6 0
3 -5 6 0
-3 -7 -8 0
3 7 -8 0
-3 7 8 0
3 -7 8 0
3 9 -10 0
-3 9 10 0
3 -9 10 0
-11 12 0
-13 -11 0
13 11 -12 0
-14 11 0
-3 -13 15 0
3 -13 -15 0
-3 13 -15 0
-3 -16 -17 0
3 16 -17 0
-3 16 17 0
3 -16 17 0
-3 -18 -19 0
3 18 -19 0
-3 18 19 0
3 -18 19 0
-15 -20 -18 0
-15 -21 -22 0
15 21 -22 0
-15 21 22 0
15 -21 22 0
-23 -24 15 0
23 -24 -15 0
23 24 15 0
25 -26 -15 0
-25 26 -15 0
-15 -27 -28 0
15 27 -28 0
-15 27 28 0
15 -27 28 0
15 20 -18 0
-15 20 18 0
15 -20 18 0
-29 -12 0
30 -31 14 0
-32 31 0
32 -33 0
-34 -33 0
-34 -32 -33 0
34 -32 33 0
-34 32 33 0
34 32 -33 0
-35 29 -36 0
-3 -26 -35 0
3 26 -35 0
-3 26 35 0
3 -26 35 0
3 13 15 0
37 -19 33 0
-38 -39 0
-25 -40 -4 0
25 40 -4 0
-25 40 4 0
25 -40 4 0
-23 -41 -38 0
23 41 -38 0
-23 41 38 0
23 -41 38 0
-23 24 -15 0
25 26 15 0
-23 -28 -34 0
23 28 -34 0
-23 28 34 0
23 -28 34 0
-25 -22 -42 0
25 22 -42 0
-25 22 42 0
25 -22 42 0
-3 -9 -10 0
-25 -24 -43 0
25 24 -43 0
-25 24 43 0
25 -24 43 0
-25 -26 15 0
-25 -16 9 0
25 -16 -9 0
-25 16 -9 0
25 16 9 0
-25 44 45 0
25 -44 45 0
-23 -40 9 0
23 -40 -9 0
-23 40 -9 0
23 40 9 0
-23 -9 -5 0
23 9 -5 0
-23 9 5 0
23 -9 5 0
-23 -9 -7 0
23 9 -7 0
-23 9 7 0
23 -9 7 0
-23 -44 -9 0
23 -44 9 0
-23 44 9 0
23 44 -9 0
-9 -21 46 0
9 -21 -46 0
-9 21 -46 0
9 21 46 0
-9 -46 -41 0
9 46 -41 0
-9 46 41 0
9 -46 41 0
-9 -27 46 0
9 -27 -46 0
-9 27 -46 0
9 27 46 0
-9 -20 -46 0
9 -20 46 0
-9 20 46 0
9 20 -46 0
-2 47 0
-1 -2 -47 0
1 2 -47 0
-1 2 47 0
1 -2 47 0
-48 2 0
-49 -48 -2 0
49 48 -2 0
-49 48 2 0
49 -48 2 0
-50 -51 0
-50 -51 -48 0
50 51 -48 0
-50 51 48 0
50 -51 48 0
-39 51 0
-49 -48 0
-51 48 0
-38 -39 -51 0
38 39 -51 0
-38 39 51 0
38 -39 51 0
-52 39 0
-53 -52 0
-53 -52 -39 0
53 52 -39 0
-53 52 39 0
53 -52 39 0
-54 52 0
-55 54 52 0
55 -54 52 0
-56 54 0
-37 -42 -49 0
37 42 -49 0
-37 42 49 0
37 -42 49 0
-37 -8 -53 0
37 8 -53 0
-37 8 53 0
37 -8 53 0
-37 -10 -55 0
37 10 -55 0
-37 10 55 0
37 -10 55 0
37 57 -30 0
-37 -19 -33 0
37 19 -33 0
-37 19 33 0
-25 -23 -58 0
25 23 -58 0
-25 23 58 0
25 -23 58 0
-37 -25 -59 0
37 25 -59 0
-37 25 59 0
37 -25 59 0
-37 -43 -60 0
37 43 -60 0
-37 43 60 0
37 -43 60 0
45 -57 -36 0
-25 -44 -45 0
25 44 -45 0
-60 -61 0
-60 -61 -62 0
60 61 -62 0
60 -61 62 0
-12 61 0
-29 -12 -61 0
-29 12 61 0
29 -12 61 0
-13 -11 -12 0
-13 11 12 0
13 -11 12 0
-63 -14 0
63 14 -11 0
-63 14 11 0
-30 -31 -14 0
-17 63 -36 0
-55 -54 0
-55 -54 -52 0
55 54 -52 0
-64 -56 0
-64 -56 -54 0
64 56 -54 0
-64 56 54 0
64 -56 54 0
-62 56 0
-59 -62 0
-59 -62 -56 0
59 62 -56 0
-59 62 56 0
59 -62 56 0
-61 62 0
-60 61 62 0
29 12 -61 0
-36 -32 0
36 32 -31 0
6 -50 -36 0
6 50 36 0
-6 50 -36 0
-58 -64 36 0
58 -64 -36 0
58 64 36 0
-58 64 -36 0
-35 -29 36 0
35 -29 -36 0
35 29 36 0
17 -63 -36 0
17 63 36 0
45 57 36 0
-63 -14 -11 0
63 -14 11 0
-31 14 0
-30 -31 0
30 31 -14 0
-30 31 14 0
-36 -32 -31 0
-36 32 31 0
36 -32 31 0
-6 -50 36 0
-17 -63 36 0
-37 -57 -30 0
-37 57 30 0
37 -57 30 0
-45 -57 36 0
-45 57 -36 0
